unsat
(define-fun f ((x (_ BitVec 64))) (_ BitVec 64) (let ((_let_1 (arba x))) (im (bvand #b0000000000000000000000000000000000000000000000000000000000000001 (bvnot x)) (im (bvand #b0000000000000000000000000000000000000000000000000000000000000001 _let_1) (bvxor #b0000000000000000000000000000000000000000000000000000000000000001 _let_1) _let_1) (bvadd x (smol x)))))
0.56user 0.04system 0:00.61elapsed 99%CPU (0avgtext+0avgdata 66696maxresident)k
0inputs+8outputs (0major+11449minor)pagefaults 0swaps
